100
32
8
15
7
5
8
1
10
11
8
17
10
23
20
4
5
24
2
26
20
2
32
15
8
30
11
10
15
22
30
9
28
13
10
5
19
4
10
18
23
23
22
3
10
28
27
30
12
26
21
8
2
22
3
29
16
25
3
20
23
6
15
10
4
31
24
17
8
22
27
24
2
6
21
23
10
15
26
12
3
12
7
7
32
25
15
22
18
5
5
21
14
15
16
11
32
11
15
8
16
4